(define-fun
  u7
  ((x Int) (y Int)) Int (ite (<= x 0) y x))
(define-fun
  v7
  ((x Int) (y Int)) Int (u7 (- x y) x))
(define-fun-rec
  u6
  ((x Int) (y Int)) Int (ite (<= x 0) y (v7 (u6 (- x 1) y) x)))
(define-fun
  u3
  ((x Int) (y Int)) Int (ite (<= x 0) y x))
(define-fun
  v3
  ((x Int) (y Int)) Int (u3 (- x y) x))
(define-fun-rec
  u2
  ((x Int) (y Int)) Int (ite (<= x 0) y (v3 (u2 (- x 1) y) x)))
(define-fun
  h7
  ((x Int)) Int x)
(define-fun
  h6
  ((x Int)) Int (+ 1 x))
(define-fun
  v6
  ((x Int)) Int (u6 x (h6 x)))
(define-fun-rec
  u5
  ((x Int) (y Int)) Int (ite (<= x 0) y (v6 (u5 (- x 1) y))))
(define-fun
  h5
  ((x Int)) Int x)
(define-fun
  h3
  ((x Int)) Int x)
(define-fun
  h2
  ((x Int)) Int (+ 1 x))
(define-fun
  v2
  ((x Int)) Int (u2 x (h2 x)))
(define-fun-rec
  u1
  ((x Int) (y Int)) Int (ite (<= x 0) y (v2 (u1 (- x 1) y))))
(define-fun
  v1
  ((x Int)) Int (u1 x x))
(define-fun
  h1
  ((x Int)) Int x)
(define-fun
  g6
  ((x Int)) Int x)
(define-fun
  g5
  ((x Int)) Int (+ 2 (div x 2)))
(define-fun
  v5
  ((x Int)) Int (u5 (g5 x) x))
(define-fun
  g4
  ((x Int)) Int (+ 1 x))
(define-fun
  g2
  ((x Int)) Int x)
(define-fun
  g1
  ((x Int)) Int x)
(define-fun
  g0
  ((x Int)) Int (+ 1 x))
(define-fun
  f7
  ((x Int) (y Int)) Int y)
(define-fun
  f4
  ((x Int)) Int (div (v5 x) 2))
(define-fun-rec
  t4
  ((x Int)) Int (ite (<= (f4 x) 0) x (t4 (+ x 1))))
(define-fun-rec
  u4
  ((x Int)) Int (ite (<= x 0) (t4 0) (t4 (+ (u4 (- x 1)) 1))))
(define-fun
  v4
  ((x Int)) Int (u4 (g4 x)))
(define-fun
  f3
  ((x Int) (y Int)) Int y)
(define-fun
  f0
  ((x Int)) Int (- (v1 x) 1))
(define-fun-rec
  t0
  ((x Int)) Int (ite (<= (f0 x) 0) x (t0 (+ x 1))))
(define-fun-rec
  u0
  ((x Int)) Int (ite (<= x 0) (t0 0) (t0 (+ (u0 (- x 1)) 1))))
(define-fun
  v0
  ((x Int)) Int (u0 (g0 x)))
(assert-not
  (forall ((c Int)) (or (not (>= c 0)) (= (v0 c) (v4 c)))))
